62
#jmolscript: set refreshing false;
S 1.962000 1.545560 5.027856
S 1.962000 1.545560 -3.902990
S 1.962000 -1.545560 -3.902990
S 1.962000 -1.545560 5.027856
S 1.962000 0.000000 5.929432
S 1.962000 0.000000 -4.804567
S -1.962000 -1.545560 -5.027856
S -1.962000 -1.545560 3.902990
S -1.962000 1.545560 3.902990
S -1.962000 1.545560 -5.027856
S -1.962000 0.000000 4.804567
S -1.962000 0.000000 -5.929432
S 0.315492 3.111000 3.642689
S 0.315492 3.111000 -3.461809
S -0.315492 -3.111000 -3.642689
S -0.315492 -3.111000 3.461809
S -0.315492 3.111000 3.461809
S -0.315492 3.111000 -3.642689
S 0.315492 -3.111000 -3.461809
S 0.315492 -3.111000 3.642689
Ar 1.962000 1.545560 0.562433
Ar 1.962000 0.772780 -4.353778
Ar 1.962000 -0.772780 -4.353778
Ar 1.962000 -1.545560 0.562433
Ar 1.962000 -0.772780 5.478644
Ar 1.962000 0.772780 5.478644
Ar -1.962000 -1.545560 -0.562433
Ar -1.962000 -0.772780 4.353778
Ar -1.962000 0.772780 4.353778
Ar -1.962000 1.545560 -0.562433
Ar -1.962000 0.772780 -5.478644
Ar -1.962000 -0.772780 -5.478644
Ar 1.138746 2.328280 -3.682400
Ar 0.315492 3.111000 0.090440
Ar 1.138746 2.328280 4.335273
Ar -1.138746 -2.328280 3.682400
Ar -0.315492 -3.111000 -0.090440
Ar -1.138746 -2.328280 -4.335273
Ar -1.138746 2.328280 -4.335273
Ar -0.315492 3.111000 -0.090440
Ar -1.138746 2.328280 3.682400
Ar 1.138746 -2.328280 4.335273
Ar 0.315492 -3.111000 0.090440
Ar 1.138746 -2.328280 -3.682400
Ar 0.000000 3.111000 -3.552249
Ar 0.000000 3.111000 3.552249
Ar 0.000000 -3.111000 3.552249
Ar 0.000000 -3.111000 -3.552249
Ar 0.000000 0.000000 5.366999
Ar 0.000000 0.000000 -5.366999
F 1.962000 0.000000 0.562433
F -1.962000 0.000000 -0.562433
F 1.138746 2.328280 0.326436
F -1.138746 -2.328280 -0.326436
F -1.138746 2.328280 -0.326436
F 1.138746 -2.328280 0.326436
F 0.000000 3.111000 0.000000
F 0.000000 -3.111000 0.000000
F 0.000000 1.552187 4.461557
F 0.000000 -1.552187 -4.461557
F 0.000000 1.552187 -4.461557
F 0.000000 -1.552187 4.461557
