70

C -0.0000001 0.000000 0.000000
C 5.000000 0.000000 0.000000
C 10.000000 0.000000 0.000000
C 2.500000 4.330127 0.000000
C 7.500000 4.330127 0.000000
C 12.500000 4.330127 0.000000
C 5.000000 8.660254 0.000000
C 10.000000 8.660254 0.000000
C 15.000000 8.660254 0.000000
C 2.500000 1.443376 4.082483
C 7.500000 1.443376 4.082483
C 12.500000 1.443376 4.082483
C 5.000000 5.773503 4.082483
C 10.000000 5.773503 4.082483
C 15.000000 5.773503 4.082483
C 7.500000 10.103630 4.082483
C 12.500000 10.103630 4.082483
C 17.500000 10.103630 4.082483
C 0.000000 0.000000 8.164966
C 5.000000 0.000000 8.164966
C 10.000000 0.000000 8.164966
C 2.500000 4.330127 8.164966
C 7.500000 4.330127 8.164966
C 12.500000 4.330127 8.164966
C 5.000000 8.660254 8.164966
C 10.000000 8.660254 8.164966
C 15.000000 8.660254 8.164966
N 2.500000 1.443376 1.020621
N 7.500000 1.443376 1.020621
N 5.000000 5.773503 1.020621
N 10.000000 5.773503 1.020621
N 2.500000 1.443376 7.144345
N 7.500000 1.443376 7.144345
N 5.000000 5.773503 7.144345
N 10.000000 5.773503 7.144345
O 5.000000 2.886751 2.041241
O 10.000000 2.886751 2.041241
O 7.500000 7.216878 2.041241
O 12.500000 7.216878 2.041241
O 5.000000 2.886751 6.123724
O 10.000000 2.886751 6.123724
O 7.500000 7.216878 6.123724
O 12.500000 7.216878 6.123724
P 0.000000 0.000000 0.000000
P 5.000000 0.000000 0.000000
P 10.000000 0.000000 0.000000
P 2.500000 4.330127 0.000000
P 7.500000 4.330127 0.000000
P 12.500000 4.330127 0.000000
P 5.000000 8.660254 0.000000
P 10.000000 8.660254 0.000000
P 15.000000 8.660254 0.000000
P 0.000000 0.000000 4.082483
P 5.000000 0.000000 4.082483
P 10.000000 0.000000 4.082483
P 2.500000 4.330127 4.082483
P 7.500000 4.330127 4.082483
P 12.500000 4.330127 4.082483
P 5.000000 8.660254 4.082483
P 10.000000 8.660254 4.082483
P 15.000000 8.660254 4.082483
P 0.000000 0.000000 8.164966
P 5.000000 0.000000 8.164966
P 10.000000 0.000000 8.164966
P 2.500000 4.330127 8.164966
P 7.500000 4.330127 8.164966
P 12.500000 4.330127 8.164966
P 5.000000 8.660254 8.164966
P 10.000000 8.660254 8.164966
P 15.000000 8.660254 8.164966
